\ENCODING=ISO-8859-1
\Problem name: GAPinst

Minimize
 obj: 0.227272727272727 x4 + 0.304668304668305 x9 + 0.227272727272727 x12
      + 0.304668304668305 x17
Subject To
 c0:  x0 + x8 + x16  = 1
 c1:  x1 + x9 + x17  = 1
 c2:  x2 + x10 + x18  = 1
 c3:  x3 + x11 + x19  = 1
 c4:  x4 + x12 + x20  = 1
 c5:  x5 + x13 + x21  = 1
 c6:  x6 + x14 + x22  = 1
 c7:  x7 + x15 + x23  = 1
 c8:  48 x0 + 47 x1 + 46 x2 + 45 x3 + 44 x4 + 43 x5 + 42 x6 + 41 x7 <= 160
 c9:  38 x8 + 37 x9 + 36 x10 + 35 x11 + 34 x12 + 33 x13 + 32 x14 + 31 x15 <= 90
 c10: 28 x16 + 27 x17 + 26 x18 + 25 x19 + 24 x20 + 23 x21 + 22 x22 + 21 x23
      <= 70
Bounds
 0 <= x0 <= 1
 0 <= x1 <= 1
 0 <= x2 <= 1
 0 <= x3 <= 1
 0 <= x4 <= 1
 0 <= x5 <= 1
 0 <= x6 <= 1
 0 <= x7 <= 1
 0 <= x8 <= 1
 0 <= x9 <= 1
 0 <= x10 <= 1
 0 <= x11 <= 1
 0 <= x12 <= 1
 0 <= x13 <= 1
 0 <= x14 <= 1
 0 <= x15 <= 1
 0 <= x16 <= 1
 0 <= x17 <= 1
 0 <= x18 <= 1
 0 <= x19 <= 1
 0 <= x20 <= 1
 0 <= x21 <= 1
 0 <= x22 <= 1
 0 <= x23 <= 1
End
